c status 101 1469274441201
c status 2 1469274441201
s td 100 2 101
b 1 2 1
b 2 101 1
b 3 100 1
b 4 99 1
b 5 98 1
b 6 97 1
b 7 96 1
b 8 95 1
b 9 94 1
b 10 93 1
b 11 92 1
b 12 91 1
b 13 90 1
b 14 89 1
b 15 88 1
b 16 87 1
b 17 6 1
b 18 85 1
b 19 84 1
b 20 83 1
b 21 82 1
b 22 81 1
b 23 80 1
b 24 79 1
b 25 78 1
b 26 77 1
b 27 76 1
b 28 75 1
b 29 74 1
b 30 73 1
b 31 72 1
b 32 71 1
b 33 70 1
b 34 69 1
b 35 68 1
b 36 67 1
b 37 66 1
b 38 65 1
b 39 64 1
b 40 63 1
b 41 62 1
b 42 61 1
b 43 60 1
b 44 59 1
b 45 58 1
b 46 57 1
b 47 56 1
b 48 55 1
b 49 54 1
b 50 53 1
b 51 52 1
b 52 51 1
b 53 50 1
b 54 49 1
b 55 48 1
b 56 47 1
b 57 46 1
b 58 45 1
b 59 44 1
b 60 43 1
b 61 42 1
b 62 41 1
b 63 40 1
b 64 39 1
b 65 38 1
b 66 37 1
b 67 36 1
b 68 35 1
b 69 34 1
b 70 33 1
b 71 32 1
b 72 31 1
b 73 30 1
b 74 29 1
b 75 28 1
b 76 27 1
b 77 26 1
b 78 25 1
b 79 24 1
b 80 23 1
b 81 22 1
b 82 21 1
b 83 20 1
b 84 19 1
b 85 18 1
b 86 17 1
b 87 16 1
b 88 15 1
b 89 14 1
b 90 13 1
b 91 12 1
b 92 11 1
b 93 10 1
b 94 9 1
b 95 8 1
b 96 7 1
b 97 86 1
b 98 5 1
b 99 4 1
b 100 3 1
1 2
1 100
100 99
100 98
98 97
98 96
96 95
96 94
94 93
94 92
92 91
92 90
90 89
90 88
88 87
88 86
86 85
86 84
84 83
84 82
82 81
82 80
80 79
80 78
78 77
78 76
76 75
76 74
74 73
74 72
72 71
72 70
70 69
70 68
68 67
68 66
66 65
66 64
64 63
64 62
62 61
62 60
60 59
60 58
58 57
58 56
56 55
56 54
54 53
54 52
52 51
52 50
50 49
50 48
48 47
48 46
46 45
46 44
44 43
44 42
42 41
42 40
40 39
40 38
38 37
38 36
36 35
36 34
34 33
34 32
32 31
32 30
30 29
30 28
28 27
28 26
26 25
26 24
24 23
24 22
22 21
22 20
20 19
20 18
18 17
18 16
16 15
16 14
14 13
14 12
12 11
12 10
10 9
10 8
8 7
8 6
6 5
6 4
4 3
